(set-info :smt-lib-version 2.6)
(set-logic QF_S)
(set-info :source |
Generated by: Murphy Berzish, Mitja Kulczynski, Federico Mora, Florin Manea, Joel Day, Dirk Nowotka, Vijay Ganesh, Zhengyang Lu
Generated on: 2020-10-01
Description: Translated from a collection of real-world regex queries, AutomataArk, collected by Loris D’Antoni and Fang Wang: https://github.com/lorisdanto/automatark
Application: Evaluate solvers on real-world regex queries
Target solver: Z3str3RE, CVC4, OSTRICH, Z3seq, Z3str3, Z3-Trau
Publications: Berzish, M., Kulczynski, M., Mora, F., Manea, F., Day, J. D., Nowotka, D., & Ganesh, V. (2021, July). An SMT solver for regular expressions and linear arithmetic over string length. In CAV 2021.
|)
(set-info :license "https://creativecommons.org/licenses/by/4.0/")
(set-info :category "industrial")
(set-info :status sat)

(declare-const X String)
(assert (not (str.in_re X (re.++ (re.union (re.++ (str.to_re "GIR") (re.opt (re.union (str.to_re " ") (str.to_re "\u{9}") (str.to_re "\u{a}") (str.to_re "\u{c}") (str.to_re "\u{d}"))) (str.to_re "0AA")) (re.++ (re.union (re.++ (re.union (re.range "A" "P") (re.range "R" "U") (str.to_re "W") (str.to_re "Y") (str.to_re "Z")) (re.range "0" "9") (re.opt (re.range "0" "9"))) (re.++ (re.union (re.range "A" "P") (re.range "R" "U") (str.to_re "W") (str.to_re "Y") (str.to_re "Z")) (re.union (re.range "A" "H") (re.range "K" "Y")) (re.range "0" "9") (re.opt (re.range "0" "9"))) (re.++ (re.union (re.range "A" "P") (re.range "R" "U") (str.to_re "W") (str.to_re "Y") (str.to_re "Z")) (re.range "0" "9") (re.union (re.range "A" "H") (str.to_re "J") (str.to_re "K") (str.to_re "S") (str.to_re "T") (str.to_re "U") (str.to_re "W"))) (re.++ (re.union (re.range "A" "P") (re.range "R" "U") (str.to_re "W") (str.to_re "Y") (str.to_re "Z")) (re.union (re.range "A" "H") (re.range "K" "Y")) (re.range "0" "9") (re.union (str.to_re "A") (str.to_re "B") (str.to_re "E") (str.to_re "H") (str.to_re "M") (str.to_re "N") (str.to_re "P") (str.to_re "R") (str.to_re "V") (str.to_re "W") (str.to_re "X") (str.to_re "Y")))) (re.opt (re.union (str.to_re " ") (str.to_re "\u{9}") (str.to_re "\u{a}") (str.to_re "\u{c}") (str.to_re "\u{d}"))) (re.range "0" "9") ((_ re.loop 2 2) (re.union (str.to_re "A") (str.to_re "B") (re.range "D" "H") (str.to_re "J") (str.to_re "L") (str.to_re "N") (re.range "P" "U") (re.range "W" "Z"))))) (str.to_re "\u{a}")))))
(assert (not (str.in_re X (re.++ (re.union (re.++ (re.union (re.++ (str.to_re "0") (re.union (str.to_re "1") (str.to_re "3") (str.to_re "5") (str.to_re "7") (str.to_re "8"))) (str.to_re "10") (str.to_re "12")) (re.union (str.to_re "-") (str.to_re ".") (str.to_re "/")) (re.union (re.++ (str.to_re "0") (re.range "1" "9")) (re.++ (re.union (str.to_re "1") (str.to_re "2")) (re.range "0" "9")) (re.++ (str.to_re "3") (re.union (str.to_re "0") (str.to_re "1")))) (re.union (str.to_re "-") (str.to_re ".") (str.to_re "/")) ((_ re.loop 4 4) (re.range "0" "9"))) (re.++ (re.union (re.++ (str.to_re "0") (re.union (str.to_re "4") (str.to_re "6") (str.to_re "9"))) (str.to_re "11")) (re.union (str.to_re "-") (str.to_re ".") (str.to_re "/")) (re.union (re.++ (str.to_re "0") (re.range "1" "9")) (re.++ (re.union (str.to_re "1") (str.to_re "2")) (re.range "0" "9")) (str.to_re "30")) (re.union (str.to_re "-") (str.to_re ".") (str.to_re "/")) ((_ re.loop 4 4) (re.range "0" "9"))) (re.++ (str.to_re "02") (re.union (str.to_re "-") (str.to_re ".") (str.to_re "/")) (re.union (re.++ (str.to_re "0") (re.range "1" "9")) (re.++ (str.to_re "1") (re.range "0" "9")) (re.++ (str.to_re "2") (re.range "0" "8"))) (re.union (str.to_re "-") (str.to_re ".") (str.to_re "/")) ((_ re.loop 4 4) (re.range "0" "9"))) (re.++ (str.to_re "02") (re.union (str.to_re ".") (str.to_re "-") (str.to_re "/")) (str.to_re "29") (re.union (str.to_re "-") (str.to_re ".") (str.to_re "/")) (re.union (str.to_re "0") (str.to_re "2") (str.to_re "4") (str.to_re "6") (str.to_re "8")) (re.union (str.to_re "0") (str.to_re "4") (str.to_re "8")) (str.to_re "00")) (re.++ (str.to_re "02") (re.union (str.to_re "-") (str.to_re ".") (str.to_re "/")) (str.to_re "29") (re.union (str.to_re "-") (str.to_re ".") (str.to_re "/")) (re.union (str.to_re "1") (str.to_re "3") (str.to_re "5") (str.to_re "7") (str.to_re "9")) (re.union (str.to_re "2") (str.to_re "6")) (str.to_re "00")) (re.++ (str.to_re "02") (re.union (str.to_re "-") (str.to_re ".") (str.to_re "/")) (str.to_re "29") (re.union (str.to_re "-") (str.to_re ".") (str.to_re "/")) (re.range "0" "9") (re.range "0" "9") (str.to_re "0") (re.union (str.to_re "4") (str.to_re "8"))) (re.++ (str.to_re "02") (re.union (str.to_re "-") (str.to_re ".") (str.to_re "/")) (str.to_re "29") (re.union (str.to_re "-") (str.to_re ".") (str.to_re "/")) (re.range "0" "9") (re.range "0" "9") (re.union (str.to_re "2") (str.to_re "4") (str.to_re "6") (str.to_re "8")) (re.union (str.to_re "0") (str.to_re "4") (str.to_re "8"))) (re.++ (str.to_re "02") (re.union (str.to_re "-") (str.to_re ".") (str.to_re "/")) (str.to_re "29") (re.union (str.to_re "-") (str.to_re ".") (str.to_re "/")) (re.range "0" "9") (re.range "0" "9") (re.union (str.to_re "1") (str.to_re "3") (str.to_re "5") (str.to_re "7") (str.to_re "9")) (re.union (str.to_re "2") (str.to_re "6")))) (str.to_re "\u{a}")))))
(assert (str.in_re X (re.++ (str.to_re "SecureNet") (re.+ (re.union (str.to_re " ") (str.to_re "\u{9}") (str.to_re "\u{a}") (str.to_re "\u{c}") (str.to_re "\u{d}"))) (str.to_re "hostiedesksearch.dropspam.com\u{a}"))))
(assert (not (str.in_re X (re.union (re.++ (re.+ (re.union (re.range "a" "z") (re.range "A" "Z"))) (re.* (re.range "0" "9")) (re.* (str.to_re ".")) (re.+ (re.union (re.range "a" "z") (re.range "A" "Z") (re.range "0" "9")))) (re.++ (re.+ (re.union (re.range "a" "z") (re.range "A" "Z"))) (re.* (re.range "0" "9")) (str.to_re "\u{a}"))))))
(assert (not (str.in_re X (re.++ (str.to_re "+") ((_ re.loop 1 3) (re.range "0" "9")) (str.to_re "(") ((_ re.loop 3 3) (re.range "0" "9")) (str.to_re ")") ((_ re.loop 7 7) (re.range "0" "9")) (str.to_re "\u{a}")))))
(check-sat)

(exit)
